Running for instance ./models/r201.txt
Generating routes...
Execution time:  7.150395  seconds
Academic license - for non-commercial use only
Warning: constraint name "Cliente esta na rota x1" has a space
Optimize a model with 26 rows, 10000 columns and 61296 nonzeros
Variable types: 0 continuous, 10000 integer (0 binary)
Coefficient statistics:
  Matrix range     [1e+00, 1e+00]
  Objective range  [2e+01, 4e+02]
  Bounds range     [1e+00, 1e+00]
  RHS range        [1e+00, 2e+01]
Found heuristic solution: objective 886.5051454
Presolve removed 1 rows and 2042 columns
Presolve time: 0.06s
Presolved: 25 rows, 7958 columns, 41404 nonzeros
Found heuristic solution: objective 870.6598528
Variable types: 0 continuous, 7958 integer (7958 binary)

Root relaxation: objective 5.329583e+02, 92 iterations, 0.01 seconds

    Nodes    |    Current Node    |     Objective Bounds      |     Work
 Expl Unexpl |  Obj  Depth IntInf | Incumbent    BestBd   Gap | It/Node Time

     0     0  532.95829    0   23  870.65985  532.95829  38.8%     -    0s
H    0     0                     552.8117386  532.95829  3.59%     -    0s
H    0     0                     538.3293384  532.95829  1.00%     -    0s
     0     0  536.27032    0   17  538.32934  536.27032  0.38%     -    0s
     0     0     cutoff    0       538.32934  538.32934  0.00%     -    0s

Explored 1 nodes (135 simplex iterations) in 0.12 seconds
Thread count was 8 (of 8 available processors)

Solution count 4: 538.329 552.812 870.66 873.575 

Optimal solution found (tolerance 1.00e-04)
Best objective 5.383293383941e+02, best bound 5.383293383941e+02, gap 0.0000%

Routes:
5 8 17
21 23 22 9 20 10
11 19 7 18
2 15 14 16 6 13 4 24 25
12 3 1

Distance: 538.329338394
Execution time:  8.158826  seconds
